* ENCODING=ISO-8859-1
NAME          CPLEX
ROWS
 N  obj1    
 G  c1      
 G  c2      
 G  c3      
 G  c4      
 G  c5      
 G  c6      
 G  c7      
 G  c8      
 G  c9      
 G  c10     
 G  c11     
 G  c12     
 G  c13     
 G  c14     
 G  c15     
 G  c16     
 G  c17     
 G  c18     
 G  c19     
 G  c20     
 G  c21     
 G  c22     
 G  c23     
 G  c24     
 G  c25     
 G  c26     
 G  c27     
 G  c28     
 G  c29     
 G  c30     
 G  c31     
 G  c32     
 G  c33     
 G  c34     
 G  c35     
COLUMNS
    MARK0000  'MARKER'                 'INTORG'
    x1        obj1                            1
    x1        c3                            837
    x1        c13                           199
    x1        c16                           556
    x1        c17                           526
    x1        c23                           605
    x1        c25                           724
    x1        c35                           476
    x2        obj1                            1
    x2        c6                            733
    x2        c12                           766
    x2        c14                           425
    x2        c18                           802
    x2        c26                           718
    x2        c32                           662
    x2        c33                           323
    x3        obj1                            1
    x3        c5                            510
    x3        c15                           707
    x4        obj1                            1
    x4        c11                           195
    x5        obj1                            1
    x5        c5                            340
    x5        c15                           707
    x5        c19                           478
    x5        c21                           382
    x5        c27                           828
    x6        obj1                            1
    x6        c15                           505
    x6        c26                           701
    x6        c28                           876
    x6        c32                           530
    x6        c33                           872
    x6        c35                           851
    x7        obj1                            1
    x8        obj1                            1
    x8        c4                            616
    x8        c6                            499
    x8        c27                           216
    x8        c33                           773
    x9        obj1                            1
    x9        c2                            921
    x9        c12                           727
    x9        c22                           777
    x9        c24                           405
    x9        c25                           781
    x9        c29                           266
    x10       obj1                            1
    x10       c1                            743
    x10       c30                           639
    x11       obj1                            1
    x11       c6                            551
    x11       c28                           285
    x12       obj1                            1
    x12       c18                           203
    x12       c20                           867
    x13       obj1                            1
    x13       c9                            144
    x13       c12                           500
    x13       c21                           815
    x13       c24                           597
    x13       c33                           384
    x13       c35                           764
    x14       obj1                            1
    x14       c22                           792
    x14       c23                           245
    x15       obj1                            1
    x15       c8                            605
    x15       c12                           388
    x15       c22                           690
    x15       c26                           763
    x15       c28                           934
    x15       c29                           241
    x15       c30                           979
    x16       obj1                            1
    x16       c5                            778
    x16       c14                           456
    x16       c27                           828
    x17       obj1                            1
    x17       c13                           590
    x17       c25                           958
    x18       obj1                            1
    x18       c5                            618
    x18       c15                           803
    x18       c28                           264
    x19       obj1                            1
    x19       c3                            455
    x19       c4                            552
    x19       c10                           610
    x19       c18                           869
    x19       c30                           868
    x20       obj1                            1
    x20       c6                            324
    x20       c8                            187
    x20       c14                           693
    x20       c18                           224
    x20       c19                           661
    x20       c24                           132
    x20       c32                           685
    x21       obj1                            1
    x21       c31                           388
    x22       obj1                            1
    x22       c10                           751
    x22       c11                           439
    x22       c18                           476
    x22       c23                           410
    x22       c24                           959
    x23       obj1                            1
    x23       c6                            865
    x23       c22                           404
    x23       c24                           184
    x24       obj1                            1
    x24       c1                            496
    x24       c11                           882
    x24       c24                           394
    x25       obj1                            1
    x25       c1                            731
    x25       c2                            444
    x25       c7                            858
    x25       c18                           738
    x25       c24                           667
    x25       c26                           838
    x25       c31                           301
    x26       obj1                            1
    x26       c10                           592
    x26       c12                           988
    x26       c20                           860
    x26       c22                           817
    x26       c30                           573
    x26       c31                           697
    x26       c32                           365
    x27       obj1                            1
    x27       c8                            869
    x27       c22                           914
    x28       obj1                            1
    x28       c9                            972
    x28       c11                           495
    x28       c26                           499
    x29       obj1                            1
    x29       c18                           762
    x29       c20                           628
    x29       c24                           676
    x30       obj1                            1
    x30       c14                           815
    x30       c16                           713
    x30       c33                           298
    x31       obj1                            1
    x31       c13                           883
    x31       c15                           937
    x31       c22                           147
    x32       obj1                            1
    x32       c1                            884
    x32       c2                            325
    x32       c3                            368
    x32       c4                            899
    x32       c6                            454
    x32       c26                           992
    x33       obj1                            1
    x34       obj1                            1
    x34       c1                            821
    x34       c9                            894
    x34       c12                           423
    x34       c14                           468
    x34       c16                           759
    x35       obj1                            1
    x35       c5                            431
    x35       c20                           554
    x36       obj1                            1
    x36       c24                           650
    x37       obj1                            1
    x37       c10                           743
    x37       c18                           488
    x38       obj1                            1
    x38       c2                            661
    x38       c17                           867
    x38       c20                           680
    x38       c21                           253
    x38       c27                           507
    x39       obj1                            1
    x39       c6                            553
    x39       c14                           656
    x39       c31                           186
    x40       obj1                            1
    x40       c19                           392
    x40       c20                           115
    x40       c24                           600
    x41       obj1                            1
    x41       c10                           713
    x41       c18                           493
    x41       c20                           540
    x41       c21                           902
    x41       c35                           550
    x42       obj1                            1
    x42       c20                           548
    x42       c27                           618
    x43       obj1                            1
    x43       c22                           892
    x43       c29                           419
    x43       c30                           862
    x44       obj1                            1
    x44       c4                            542
    x44       c16                           473
    x44       c33                           893
    x45       obj1                            1
    x45       c9                            245
    x45       c11                           389
    x45       c15                           101
    x45       c20                           835
    x45       c28                           859
    x45       c31                           487
    x46       obj1                            1
    x46       c28                           985
    x46       c30                           564
    x46       c34                           581
    x47       obj1                            1
    x48       obj1                            1
    x48       c1                            957
    x48       c13                           732
    x48       c17                           320
    x48       c26                           928
    x48       c28                           827
    x48       c30                           803
    x48       c32                           427
    x48       c33                           440
    x49       obj1                            1
    x49       c7                            750
    x49       c10                           370
    x50       obj1                            1
    x50       c10                           515
    x50       c25                           553
    x51       obj1                            1
    x51       c1                            618
    x51       c31                           618
    x52       obj1                            1
    x52       c2                            218
    x52       c11                           166
    x52       c15                           898
    x52       c21                           508
    x52       c34                           877
    x53       obj1                            1
    x53       c1                            449
    x53       c16                           740
    x53       c19                           355
    x53       c25                           213
    x54       obj1                            1
    x54       c7                            949
    x54       c21                           252
    x54       c22                           400
    x55       obj1                            1
    x55       c20                           768
    x55       c25                           424
    x55       c28                           621
    x55       c31                           484
    x55       c33                           569
    x56       obj1                            1
    x56       c11                           759
    x56       c19                           176
    x56       c26                           316
    x57       obj1                            1
    x58       obj1                            1
    x58       c10                           465
    x58       c13                           724
    x58       c28                           604
    x59       obj1                            1
    x59       c6                            572
    x59       c17                           254
    x59       c28                           910
    x60       obj1                            1
    x60       c1                            274
    x60       c15                           174
    x60       c17                           584
    x60       c35                           734
    x61       obj1                            1
    x61       c2                            128
    x61       c4                            423
    x61       c11                           537
    x61       c21                           753
    x62       obj1                            1
    x62       c15                           742
    x63       obj1                            1
    x63       c9                            746
    x63       c11                           219
    x63       c26                           117
    x63       c29                           122
    x64       obj1                            1
    x64       c7                            435
    x64       c27                           888
    x65       obj1                            1
    x65       c9                            789
    x65       c10                           289
    x65       c27                           821
    x65       c33                           587
    x65       c35                           342
    x66       obj1                            1
    x66       c4                            517
    x66       c8                            901
    x66       c14                           976
    x66       c21                           326
    x66       c25                           687
    x66       c32                           408
    x67       obj1                            1
    x67       c23                           354
    x67       c31                           291
    x68       obj1                            1
    x68       c5                            264
    x68       c14                           626
    x68       c27                           712
    x68       c30                           333
    x68       c34                           933
    x69       obj1                            1
    x69       c31                           137
    x69       c34                           780
    x70       obj1                            1
    x70       c3                            691
    x70       c6                            203
    x70       c16                           613
    x70       c26                           515
    x70       c30                           727
    MARK0001  'MARKER'                 'INTEND'
RHS
    rhs       c1                           2987
    rhs       c2                           1349
    rhs       c3                           1176
    rhs       c4                           1775
    rhs       c5                           1471
    rhs       c6                           2377
    rhs       c7                           1496
    rhs       c8                           1281
    rhs       c9                           1895
    rhs       c10                          2524
    rhs       c11                          2041
    rhs       c12                          1896
    rhs       c13                          1564
    rhs       c14                          2558
    rhs       c15                          2787
    rhs       c16                          1927
    rhs       c17                          1276
    rhs       c18                          2528
    rhs       c19                          1031
    rhs       c20                          3198
    rhs       c21                          2096
    rhs       c22                          2917
    rhs       c23                           807
    rhs       c24                          2632
    rhs       c25                          2170
    rhs       c26                          3194
    rhs       c27                          2709
    rhs       c28                          3583
    rhs       c29                           524
    rhs       c30                          3174
    rhs       c31                          1795
    rhs       c32                          1539
    rhs       c33                          2570
    rhs       c34                          1586
    rhs       c35                          1859
BOUNDS
 LI bnd       x1        0
 LI bnd       x2        0
 LI bnd       x3        0
 LI bnd       x4        0
 LI bnd       x5        0
 LI bnd       x6        0
 LI bnd       x7        0
 LI bnd       x8        0
 LI bnd       x9        0
 LI bnd       x10       0
 LI bnd       x11       0
 LI bnd       x12       0
 LI bnd       x13       0
 LI bnd       x14       0
 LI bnd       x15       0
 LI bnd       x16       0
 LI bnd       x17       0
 LI bnd       x18       0
 LI bnd       x19       0
 LI bnd       x20       0
 LI bnd       x21       0
 LI bnd       x22       0
 LI bnd       x23       0
 LI bnd       x24       0
 LI bnd       x25       0
 LI bnd       x26       0
 LI bnd       x27       0
 LI bnd       x28       0
 LI bnd       x29       0
 LI bnd       x30       0
 LI bnd       x31       0
 LI bnd       x32       0
 LI bnd       x33       0
 LI bnd       x34       0
 LI bnd       x35       0
 LI bnd       x36       0
 LI bnd       x37       0
 LI bnd       x38       0
 LI bnd       x39       0
 LI bnd       x40       0
 LI bnd       x41       0
 LI bnd       x42       0
 LI bnd       x43       0
 LI bnd       x44       0
 LI bnd       x45       0
 LI bnd       x46       0
 LI bnd       x47       0
 LI bnd       x48       0
 LI bnd       x49       0
 LI bnd       x50       0
 LI bnd       x51       0
 LI bnd       x52       0
 LI bnd       x53       0
 LI bnd       x54       0
 LI bnd       x55       0
 LI bnd       x56       0
 LI bnd       x57       0
 LI bnd       x58       0
 LI bnd       x59       0
 LI bnd       x60       0
 LI bnd       x61       0
 LI bnd       x62       0
 LI bnd       x63       0
 LI bnd       x64       0
 LI bnd       x65       0
 LI bnd       x66       0
 LI bnd       x67       0
 LI bnd       x68       0
 LI bnd       x69       0
 LI bnd       x70       0
ENDATA
